problems/csplib-prob030/BalancedAcademicCurriculumProblem-models/compact/O2/minion/model-bacp-12-solution000001.solution
language Essence 1.3

letting curr be
        function(1 --> 1, 2 --> 1, 3 --> 9, 4 --> 8, 5 --> 8, 6 --> 8, 7 --> 8, 8 --> 7, 9 --> 7, 10 --> 7, 11 --> 7,
                 12 --> 1, 13 --> 1, 14 --> 7, 15 --> 7, 16 --> 6, 17 --> 6, 18 --> 6, 19 --> 6, 20 --> 5, 21 --> 5,
                 22 --> 5, 23 --> 5, 24 --> 4, 25 --> 4, 26 --> 4, 27 --> 4, 28 --> 4, 29 --> 4, 30 --> 9, 31 --> 3,
                 32 --> 3, 33 --> 3, 34 --> 3, 35 --> 10, 36 --> 3, 37 --> 3, 38 --> 2, 39 --> 2, 40 --> 2, 41 --> 2,
                 42 --> 10, 43 --> 2, 44 --> 2, 45 --> 1, 46 --> 1, 47 --> 1, 48 --> 1, 49 --> 1, 50 --> 1)
