problems/csplib-prob030/BalancedAcademicCurriculumProblem-models/noch/O0/minion/model-bacp-12-solution000001.eprime-solution
language ESSENCE' 1.0

letting curr_Function1D be
        [1, 1, 9, 8, 8, 8, 8, 7, 7, 7, 7, 1, 1, 7, 7, 6, 6, 6, 6, 5, 5, 5, 5, 4, 4, 4, 4, 4, 4, 9, 3, 3, 3, 3, 10, 3, 3,
         2, 2, 2, 2, 10, 2, 2, 1, 1, 1, 1, 1, 1;
             int(1..50)]
